100
32
30
26
2
4
27
25
20
7
32
15
9
17
1
15
3
20
11
8
22
7
15
19
5
7
13
22
10
16
10
23
10
17
4
21
10
19
14
10
3
4
28
16
23
12
10
17
17
6
6
22
17
14
31
11
28
23
9
20
17
3
18
15
25
2
7
5
12
15
30
11
21
8
5
16
7
30
23
18
15
3
28
16
29
27
20
4
5
14
3
24
14
21
2
18
15
30
17
25
10
17